(set-logic QF_LRA)
(declare-fun X0 () Real )
(declare-fun Y0 () Real )
(declare-fun X1 () Real )
(declare-fun Y1 () Real )
(declare-fun X2 () Real )
(declare-fun Y2 () Real )
(declare-fun X3 () Real )
(declare-fun Y3 () Real )
(declare-fun X4 () Real )
(declare-fun Y4 () Real )
(declare-fun X5 () Real )
(declare-fun Y5 () Real )
(declare-fun X6 () Real )
(declare-fun Y6 () Real )
(declare-fun X7 () Real )
(declare-fun Y7 () Real )
(declare-fun X8 () Real )
(declare-fun Y8 () Real )
(declare-fun X9 () Real )
(declare-fun Y9 () Real )
(declare-fun X10 () Real )
(declare-fun Y10 () Real )
(declare-fun X11 () Real )
(declare-fun Y11 () Real )
(declare-fun Z () Real )
(declare-fun k () Real )
(assert (let
(( $goal (>= Z k) ))
(let
((
$phi ( and 
( or ( <= ( + X0 32 ) X1 )  ( <= ( + X1 55 ) X0 )  ( <= ( + Y0 11 ) Y1 )  ( <= ( + Y1 48 ) Y0 )  )
( or ( <= ( + X0 32 ) X2 )  ( <= ( + X2 68 ) X0 )  ( <= ( + Y0 11 ) Y2 )  ( <= ( + Y2 62 ) Y0 )  )
( or ( <= ( + X0 32 ) X3 )  ( <= ( + X3 62 ) X0 )  ( <= ( + Y0 11 ) Y3 )  ( <= ( + Y3 77 ) Y0 )  )
( or ( <= ( + X0 32 ) X4 )  ( <= ( + X4 100 ) X0 )  ( <= ( + Y0 11 ) Y4 )  ( <= ( + Y4 77 ) Y0 )  )
( or ( <= ( + X0 32 ) X5 )  ( <= ( + X5 29 ) X0 )  ( <= ( + Y0 11 ) Y5 )  ( <= ( + Y5 49 ) Y0 )  )
( or ( <= ( + X0 32 ) X6 )  ( <= ( + X6 70 ) X0 )  ( <= ( + Y0 11 ) Y6 )  ( <= ( + Y6 96 ) Y0 )  )
( or ( <= ( + X0 32 ) X7 )  ( <= ( + X7 44 ) X0 )  ( <= ( + Y0 11 ) Y7 )  ( <= ( + Y7 72 ) Y0 )  )
( or ( <= ( + X0 32 ) X8 )  ( <= ( + X8 53 ) X0 )  ( <= ( + Y0 11 ) Y8 )  ( <= ( + Y8 46 ) Y0 )  )
( or ( <= ( + X0 32 ) X9 )  ( <= ( + X9 9 ) X0 )  ( <= ( + Y0 11 ) Y9 )  ( <= ( + Y9 68 ) Y0 )  )
( or ( <= ( + X0 32 ) X10 )  ( <= ( + X10 57 ) X0 )  ( <= ( + Y0 11 ) Y10 )  ( <= ( + Y10 73 ) Y0 )  )
( or ( <= ( + X0 32 ) X11 )  ( <= ( + X11 63 ) X0 )  ( <= ( + Y0 11 ) Y11 )  ( <= ( + Y11 20 ) Y0 )  )
( or ( <= ( + X1 55 ) X2 )  ( <= ( + X2 68 ) X1 )  ( <= ( + Y1 48 ) Y2 )  ( <= ( + Y2 62 ) Y1 )  )
( or ( <= ( + X1 55 ) X3 )  ( <= ( + X3 62 ) X1 )  ( <= ( + Y1 48 ) Y3 )  ( <= ( + Y3 77 ) Y1 )  )
( or ( <= ( + X1 55 ) X4 )  ( <= ( + X4 100 ) X1 )  ( <= ( + Y1 48 ) Y4 )  ( <= ( + Y4 77 ) Y1 )  )
( or ( <= ( + X1 55 ) X5 )  ( <= ( + X5 29 ) X1 )  ( <= ( + Y1 48 ) Y5 )  ( <= ( + Y5 49 ) Y1 )  )
( or ( <= ( + X1 55 ) X6 )  ( <= ( + X6 70 ) X1 )  ( <= ( + Y1 48 ) Y6 )  ( <= ( + Y6 96 ) Y1 )  )
( or ( <= ( + X1 55 ) X7 )  ( <= ( + X7 44 ) X1 )  ( <= ( + Y1 48 ) Y7 )  ( <= ( + Y7 72 ) Y1 )  )
( or ( <= ( + X1 55 ) X8 )  ( <= ( + X8 53 ) X1 )  ( <= ( + Y1 48 ) Y8 )  ( <= ( + Y8 46 ) Y1 )  )
( or ( <= ( + X1 55 ) X9 )  ( <= ( + X9 9 ) X1 )  ( <= ( + Y1 48 ) Y9 )  ( <= ( + Y9 68 ) Y1 )  )
( or ( <= ( + X1 55 ) X10 )  ( <= ( + X10 57 ) X1 )  ( <= ( + Y1 48 ) Y10 )  ( <= ( + Y10 73 ) Y1 )  )
( or ( <= ( + X1 55 ) X11 )  ( <= ( + X11 63 ) X1 )  ( <= ( + Y1 48 ) Y11 )  ( <= ( + Y11 20 ) Y1 )  )
( or ( <= ( + X2 68 ) X3 )  ( <= ( + X3 62 ) X2 )  ( <= ( + Y2 62 ) Y3 )  ( <= ( + Y3 77 ) Y2 )  )
( or ( <= ( + X2 68 ) X4 )  ( <= ( + X4 100 ) X2 )  ( <= ( + Y2 62 ) Y4 )  ( <= ( + Y4 77 ) Y2 )  )
( or ( <= ( + X2 68 ) X5 )  ( <= ( + X5 29 ) X2 )  ( <= ( + Y2 62 ) Y5 )  ( <= ( + Y5 49 ) Y2 )  )
( or ( <= ( + X2 68 ) X6 )  ( <= ( + X6 70 ) X2 )  ( <= ( + Y2 62 ) Y6 )  ( <= ( + Y6 96 ) Y2 )  )
( or ( <= ( + X2 68 ) X7 )  ( <= ( + X7 44 ) X2 )  ( <= ( + Y2 62 ) Y7 )  ( <= ( + Y7 72 ) Y2 )  )
( or ( <= ( + X2 68 ) X8 )  ( <= ( + X8 53 ) X2 )  ( <= ( + Y2 62 ) Y8 )  ( <= ( + Y8 46 ) Y2 )  )
( or ( <= ( + X2 68 ) X9 )  ( <= ( + X9 9 ) X2 )  ( <= ( + Y2 62 ) Y9 )  ( <= ( + Y9 68 ) Y2 )  )
( or ( <= ( + X2 68 ) X10 )  ( <= ( + X10 57 ) X2 )  ( <= ( + Y2 62 ) Y10 )  ( <= ( + Y10 73 ) Y2 )  )
( or ( <= ( + X2 68 ) X11 )  ( <= ( + X11 63 ) X2 )  ( <= ( + Y2 62 ) Y11 )  ( <= ( + Y11 20 ) Y2 )  )
( or ( <= ( + X3 62 ) X4 )  ( <= ( + X4 100 ) X3 )  ( <= ( + Y3 77 ) Y4 )  ( <= ( + Y4 77 ) Y3 )  )
( or ( <= ( + X3 62 ) X5 )  ( <= ( + X5 29 ) X3 )  ( <= ( + Y3 77 ) Y5 )  ( <= ( + Y5 49 ) Y3 )  )
( or ( <= ( + X3 62 ) X6 )  ( <= ( + X6 70 ) X3 )  ( <= ( + Y3 77 ) Y6 )  ( <= ( + Y6 96 ) Y3 )  )
( or ( <= ( + X3 62 ) X7 )  ( <= ( + X7 44 ) X3 )  ( <= ( + Y3 77 ) Y7 )  ( <= ( + Y7 72 ) Y3 )  )
( or ( <= ( + X3 62 ) X8 )  ( <= ( + X8 53 ) X3 )  ( <= ( + Y3 77 ) Y8 )  ( <= ( + Y8 46 ) Y3 )  )
( or ( <= ( + X3 62 ) X9 )  ( <= ( + X9 9 ) X3 )  ( <= ( + Y3 77 ) Y9 )  ( <= ( + Y9 68 ) Y3 )  )
( or ( <= ( + X3 62 ) X10 )  ( <= ( + X10 57 ) X3 )  ( <= ( + Y3 77 ) Y10 )  ( <= ( + Y10 73 ) Y3 )  )
( or ( <= ( + X3 62 ) X11 )  ( <= ( + X11 63 ) X3 )  ( <= ( + Y3 77 ) Y11 )  ( <= ( + Y11 20 ) Y3 )  )
( or ( <= ( + X4 100 ) X5 )  ( <= ( + X5 29 ) X4 )  ( <= ( + Y4 77 ) Y5 )  ( <= ( + Y5 49 ) Y4 )  )
( or ( <= ( + X4 100 ) X6 )  ( <= ( + X6 70 ) X4 )  ( <= ( + Y4 77 ) Y6 )  ( <= ( + Y6 96 ) Y4 )  )
( or ( <= ( + X4 100 ) X7 )  ( <= ( + X7 44 ) X4 )  ( <= ( + Y4 77 ) Y7 )  ( <= ( + Y7 72 ) Y4 )  )
( or ( <= ( + X4 100 ) X8 )  ( <= ( + X8 53 ) X4 )  ( <= ( + Y4 77 ) Y8 )  ( <= ( + Y8 46 ) Y4 )  )
( or ( <= ( + X4 100 ) X9 )  ( <= ( + X9 9 ) X4 )  ( <= ( + Y4 77 ) Y9 )  ( <= ( + Y9 68 ) Y4 )  )
( or ( <= ( + X4 100 ) X10 )  ( <= ( + X10 57 ) X4 )  ( <= ( + Y4 77 ) Y10 )  ( <= ( + Y10 73 ) Y4 )  )
( or ( <= ( + X4 100 ) X11 )  ( <= ( + X11 63 ) X4 )  ( <= ( + Y4 77 ) Y11 )  ( <= ( + Y11 20 ) Y4 )  )
( or ( <= ( + X5 29 ) X6 )  ( <= ( + X6 70 ) X5 )  ( <= ( + Y5 49 ) Y6 )  ( <= ( + Y6 96 ) Y5 )  )
( or ( <= ( + X5 29 ) X7 )  ( <= ( + X7 44 ) X5 )  ( <= ( + Y5 49 ) Y7 )  ( <= ( + Y7 72 ) Y5 )  )
( or ( <= ( + X5 29 ) X8 )  ( <= ( + X8 53 ) X5 )  ( <= ( + Y5 49 ) Y8 )  ( <= ( + Y8 46 ) Y5 )  )
( or ( <= ( + X5 29 ) X9 )  ( <= ( + X9 9 ) X5 )  ( <= ( + Y5 49 ) Y9 )  ( <= ( + Y9 68 ) Y5 )  )
( or ( <= ( + X5 29 ) X10 )  ( <= ( + X10 57 ) X5 )  ( <= ( + Y5 49 ) Y10 )  ( <= ( + Y10 73 ) Y5 )  )
( or ( <= ( + X5 29 ) X11 )  ( <= ( + X11 63 ) X5 )  ( <= ( + Y5 49 ) Y11 )  ( <= ( + Y11 20 ) Y5 )  )
( or ( <= ( + X6 70 ) X7 )  ( <= ( + X7 44 ) X6 )  ( <= ( + Y6 96 ) Y7 )  ( <= ( + Y7 72 ) Y6 )  )
( or ( <= ( + X6 70 ) X8 )  ( <= ( + X8 53 ) X6 )  ( <= ( + Y6 96 ) Y8 )  ( <= ( + Y8 46 ) Y6 )  )
( or ( <= ( + X6 70 ) X9 )  ( <= ( + X9 9 ) X6 )  ( <= ( + Y6 96 ) Y9 )  ( <= ( + Y9 68 ) Y6 )  )
( or ( <= ( + X6 70 ) X10 )  ( <= ( + X10 57 ) X6 )  ( <= ( + Y6 96 ) Y10 )  ( <= ( + Y10 73 ) Y6 )  )
( or ( <= ( + X6 70 ) X11 )  ( <= ( + X11 63 ) X6 )  ( <= ( + Y6 96 ) Y11 )  ( <= ( + Y11 20 ) Y6 )  )
( or ( <= ( + X7 44 ) X8 )  ( <= ( + X8 53 ) X7 )  ( <= ( + Y7 72 ) Y8 )  ( <= ( + Y8 46 ) Y7 )  )
( or ( <= ( + X7 44 ) X9 )  ( <= ( + X9 9 ) X7 )  ( <= ( + Y7 72 ) Y9 )  ( <= ( + Y9 68 ) Y7 )  )
( or ( <= ( + X7 44 ) X10 )  ( <= ( + X10 57 ) X7 )  ( <= ( + Y7 72 ) Y10 )  ( <= ( + Y10 73 ) Y7 )  )
( or ( <= ( + X7 44 ) X11 )  ( <= ( + X11 63 ) X7 )  ( <= ( + Y7 72 ) Y11 )  ( <= ( + Y11 20 ) Y7 )  )
( or ( <= ( + X8 53 ) X9 )  ( <= ( + X9 9 ) X8 )  ( <= ( + Y8 46 ) Y9 )  ( <= ( + Y9 68 ) Y8 )  )
( or ( <= ( + X8 53 ) X10 )  ( <= ( + X10 57 ) X8 )  ( <= ( + Y8 46 ) Y10 )  ( <= ( + Y10 73 ) Y8 )  )
( or ( <= ( + X8 53 ) X11 )  ( <= ( + X11 63 ) X8 )  ( <= ( + Y8 46 ) Y11 )  ( <= ( + Y11 20 ) Y8 )  )
( or ( <= ( + X9 9 ) X10 )  ( <= ( + X10 57 ) X9 )  ( <= ( + Y9 68 ) Y10 )  ( <= ( + Y10 73 ) Y9 )  )
( or ( <= ( + X9 9 ) X11 )  ( <= ( + X11 63 ) X9 )  ( <= ( + Y9 68 ) Y11 )  ( <= ( + Y11 20 ) Y9 )  )
( or ( <= ( + X10 57 ) X11 )  ( <= ( + X11 63 ) X10 )  ( <= ( + Y10 73 ) Y11 )  ( <= ( + Y11 20 ) Y10 )  )
( >= X0 0)
( <= ( + X0 32) Z)
( >= Y0 0)
( <= ( + Y0 11 ) 173)
( >= X1 0)
( <= ( + X1 55) Z)
( >= Y1 0)
( <= ( + Y1 48 ) 173)
( >= X2 0)
( <= ( + X2 68) Z)
( >= Y2 0)
( <= ( + Y2 62 ) 173)
( >= X3 0)
( <= ( + X3 62) Z)
( >= Y3 0)
( <= ( + Y3 77 ) 173)
( >= X4 0)
( <= ( + X4 100) Z)
( >= Y4 0)
( <= ( + Y4 77 ) 173)
( >= X5 0)
( <= ( + X5 29) Z)
( >= Y5 0)
( <= ( + Y5 49 ) 173)
( >= X6 0)
( <= ( + X6 70) Z)
( >= Y6 0)
( <= ( + Y6 96 ) 173)
( >= X7 0)
( <= ( + X7 44) Z)
( >= Y7 0)
( <= ( + Y7 72 ) 173)
( >= X8 0)
( <= ( + X8 53) Z)
( >= Y8 0)
( <= ( + Y8 46 ) 173)
( >= X9 0)
( <= ( + X9 9) Z)
( >= Y9 0)
( <= ( + Y9 68 ) 173)
( >= X10 0)
( <= ( + X10 57) Z)
( >= Y10 0)
( <= ( + Y10 73 ) 173)
( >= X11 0)
( <= ( + X11 63) Z)
( >= Y11 0)
( <= ( + Y11 20 ) 173)
) )
)(=> $phi $goal))))